n_nodes = 681;
M = 6701;
n_domains = 18;
domain_link_weights = [|0,6701,6701,358,6701,6701,6701,6701,6701,6701,6701,6701,6701,6701,6701,6701,6701,6701|6701,0,6701,6701,6701,479,344,264,6701,6701,6701,6701,6701,6701,6701,6701,6701,6701|6701,6701,0,6701,6701,6701,6701,6701,6701,972,6701,6701,6701,6701,1788,6701,6701,6701|6701,6701,6701,0,6701,6701,6701,6701,6701,6701,6701,6701,6701,6701,6701,6701,6701,6701|6701,6701,6701,6701,0,364,358,173,6701,6701,6701,6701,6701,6701,6701,6701,6701,6223|6701,6701,6701,6701,6701,0,6701,6701,6701,6701,6701,6701,6701,6701,6701,6701,6701,6701|6701,6701,6701,6701,6701,6701,0,6701,5585,6701,6701,6701,6701,6701,6701,6701,6701,6701|6701,6701,6701,6701,6701,6701,6701,0,6701,6701,6701,6701,6701,6701,6701,6701,6701,6701|6701,6701,6701,6701,6701,6701,6701,6701,0,6701,6701,6701,6701,6701,6701,1148,556,350|6701,6701,6701,6701,6701,6701,6701,6701,6701,0,6701,6701,6701,2562,6701,943,6701,852|6701,6701,6701,6701,6701,6701,6701,6701,6701,6701,0,1141,6701,6701,6701,2795,6701,6701|6701,6701,6701,6701,6701,6701,6701,6701,6701,6701,6701,0,492,6701,6701,2963,6701,3855|6701,6701,6701,6701,6701,6701,6701,6701,6701,6701,6701,6701,0,575,1995,2807,6701,6701|6701,6701,6701,6701,6701,6701,6701,6701,6701,6701,6701,6701,6701,0,1425,6701,6701,6701|6701,6701,6701,6701,6701,6701,6701,6701,6701,6701,6701,6701,6701,6701,0,1291,6701,1872|6701,6701,6701,6701,6701,6701,6701,6701,6701,6701,6701,6701,6701,6701,6701,0,704,916|6701,6701,6701,6701,6701,6701,6701,6701,6701,6701,6701,6701,6701,6701,6701,6701,0,6701|6701,6701,6701,6701,6701,6701,6701,6701,6701,6701,6701,6701,6701,6701,6701,6701,6701,0|];
num_node_links = 1357;
node_links = [|1,3|1,4|2,6|2,7|2,8|3,10|3,15|5,6|5,7|5,8|5,18|7,9|9,16|9,17|9,18|10,14|10,16|10,18|11,12|11,16|12,13|12,16|12,18|13,14|13,15|13,16|14,15|15,16|15,18|16,17|16,18|1,19|19,1|1,53|53,1|1,58|58,1|1,65|65,1|1,69|69,1|1,76|76,1|1,82|82,1|1,85|85,1|1,87|87,1|1,100|100,1|1,117|117,1|1,128|128,1|1,155|155,1|1,210|210,1|1,234|234,1|1,245|245,1|1,254|254,1|1,258|258,1|1,280|280,1|1,320|320,1|1,325|325,1|1,368|368,1|1,392|392,1|1,411|411,1|1,429|429,1|1,439|439,1|1,459|459,1|1,462|462,1|1,525|525,1|1,532|532,1|1,553|553,1|1,567|567,1|1,604|604,1|1,624|624,1|1,628|628,1|1,644|644,1|1,664|664,1|2,20|20,2|2,40|40,2|2,50|50,2|2,59|59,2|2,72|72,2|2,103|103,2|2,112|112,2|2,120|120,2|2,149|149,2|2,183|183,2|2,188|188,2|2,196|196,2|2,201|201,2|2,230|230,2|2,244|244,2|2,274|274,2|2,294|294,2|2,303|303,2|2,347|347,2|2,382|382,2|2,431|431,2|2,449|449,2|2,477|477,2|2,482|482,2|2,543|543,2|2,550|550,2|2,556|556,2|2,559|559,2|2,561|561,2|2,579|579,2|2,585|585,2|2,591|591,2|2,598|598,2|2,603|603,2|2,607|607,2|2,611|611,2|2,630|630,2|3,21|21,3|3,56|56,3|3,92|92,3|3,95|95,3|3,150|150,3|3,153|153,3|3,171|171,3|3,186|186,3|3,204|204,3|3,208|208,3|3,221|221,3|3,239|239,3|3,255|255,3|3,262|262,3|3,264|264,3|3,289|289,3|3,301|301,3|3,318|318,3|3,331|331,3|3,332|332,3|3,345|345,3|3,346|346,3|3,351|351,3|3,361|361,3|3,370|370,3|3,388|388,3|3,422|422,3|3,470|470,3|3,534|534,3|3,537|537,3|3,562|562,3|3,571|571,3|3,578|578,3|3,623|623,3|3,631|631,3|3,645|645,3|3,653|653,3|4,22|22,4|4,67|67,4|4,98|98,4|4,110|110,4|4,118|118,4|4,132|132,4|4,140|140,4|4,161|161,4|4,176|176,4|4,177|177,4|4,178|178,4|4,200|200,4|4,218|218,4|4,219|219,4|4,267|267,4|4,271|271,4|4,277|277,4|4,295|295,4|4,298|298,4|4,342|342,4|4,348|348,4|4,390|390,4|4,391|391,4|4,420|420,4|4,424|424,4|4,452|452,4|4,498|498,4|4,518|518,4|4,560|560,4|4,588|588,4|4,600|600,4|4,609|609,4|4,616|616,4|4,637|637,4|4,647|647,4|4,648|648,4|4,673|673,4|5,23|23,5|5,77|77,5|5,86|86,5|5,142|142,5|5,146|146,5|5,151|151,5|5,156|156,5|5,170|170,5|5,202|202,5|5,205|205,5|5,207|207,5|5,225|225,5|5,272|272,5|5,273|273,5|5,299|299,5|5,311|311,5|5,321|321,5|5,336|336,5|5,343|343,5|5,364|364,5|5,378|378,5|5,394|394,5|5,398|398,5|5,402|402,5|5,458|458,5|5,464|464,5|5,487|487,5|5,496|496,5|5,516|516,5|5,557|557,5|5,613|613,5|5,622|622,5|5,641|641,5|5,649|649,5|5,652|652,5|5,670|670,5|5,675|675,5|6,24|24,6|6,38|38,6|6,42|42,6|6,71|71,6|6,73|73,6|6,94|94,6|6,122|122,6|6,125|125,6|6,127|127,6|6,154|154,6|6,173|173,6|6,189|189,6|6,206|206,6|6,212|212,6|6,256|256,6|6,302|302,6|6,304|304,6|6,305|305,6|6,371|371,6|6,410|410,6|6,413|413,6|6,416|416,6|6,423|423,6|6,461|461,6|6,463|463,6|6,480|480,6|6,483|483,6|6,493|493,6|6,504|504,6|6,512|512,6|6,536|536,6|6,565|565,6|6,580|580,6|6,602|602,6|6,642|642,6|6,651|651,6|6,680|680,6|7,25|25,7|7,44|44,7|7,66|66,7|7,79|79,7|7,102|102,7|7,104|104,7|7,114|114,7|7,124|124,7|7,133|133,7|7,175|175,7|7,199|199,7|7,240|240,7|7,243|243,7|7,257|257,7|7,278|278,7|7,283|283,7|7,286|286,7|7,306|306,7|7,328|328,7|7,357|357,7|7,363|363,7|7,375|375,7|7,399|399,7|7,421|421,7|7,450|450,7|7,456|456,7|7,474|474,7|7,520|520,7|7,541|541,7|7,563|563,7|7,566|566,7|7,568|568,7|7,586|586,7|7,605|605,7|7,606|606,7|7,635|635,7|7,661|661,7|8,26|26,8|8,49|49,8|8,64|64,8|8,68|68,8|8,70|70,8|8,97|97,8|8,115|115,8|8,143|143,8|8,145|145,8|8,158|158,8|8,168|168,8|8,194|194,8|8,211|211,8|8,249|249,8|8,309|309,8|8,344|344,8|8,350|350,8|8,355|355,8|8,362|362,8|8,379|379,8|8,396|396,8|8,397|397,8|8,415|415,8|8,451|451,8|8,485|485,8|8,489|489,8|8,494|494,8|8,501|501,8|8,513|513,8|8,521|521,8|8,592|592,8|8,595|595,8|8,597|597,8|8,620|620,8|8,629|629,8|8,639|639,8|8,667|667,8|9,27|27,9|9,43|43,9|9,48|48,9|9,54|54,9|9,80|80,9|9,96|96,9|9,111|111,9|9,147|147,9|9,185|185,9|9,191|191,9|9,197|197,9|9,250|250,9|9,340|340,9|9,349|349,9|9,356|356,9|9,359|359,9|9,366|366,9|9,384|384,9|9,386|386,9|9,408|408,9|9,409|409,9|9,428|428,9|9,497|497,9|9,505|505,9|9,511|511,9|9,524|524,9|9,546|546,9|9,555|555,9|9,569|569,9|9,576|576,9|9,610|610,9|9,615|615,9|9,625|625,9|9,640|640,9|9,643|643,9|9,668|668,9|9,678|678,9|10,28|28,10|10,46|46,10|10,47|47,10|10,51|51,10|10,74|74,10|10,89|89,10|10,116|116,10|10,164|164,10|10,180|180,10|10,222|222,10|10,235|235,10|10,241|241,10|10,268|268,10|10,284|284,10|10,291|291,10|10,322|322,10|10,341|341,10|10,374|374,10|10,389|389,10|10,404|404,10|10,418|418,10|10,445|445,10|10,448|448,10|10,481|481,10|10,527|527,10|10,535|535,10|10,539|539,10|10,542|542,10|10,544|544,10|10,551|551,10|10,626|626,10|10,633|633,10|10,658|658,10|10,659|659,10|10,671|671,10|10,679|679,10|10,681|681,10|11,29|29,11|11,45|45,11|11,63|63,11|11,121|121,11|11,141|141,11|11,152|152,11|11,166|166,11|11,182|182,11|11,190|190,11|11,195|195,11|11,224|224,11|11,236|236,11|11,260|260,11|11,263|263,11|11,314|314,11|11,317|317,11|11,354|354,11|11,367|367,11|11,401|401,11|11,414|414,11|11,417|417,11|11,433|433,11|11,437|437,11|11,440|440,11|11,471|471,11|11,495|495,11|11,510|510,11|11,515|515,11|11,523|523,11|11,577|577,11|11,581|581,11|11,593|593,11|11,594|594,11|11,638|638,11|11,655|655,11|11,662|662,11|11,677|677,11|12,30|30,12|12,81|81,12|12,84|84,12|12,93|93,12|12,106|106,12|12,109|109,12|12,134|134,12|12,138|138,12|12,159|159,12|12,163|163,12|12,174|174,12|12,214|214,12|12,229|229,12|12,233|233,12|12,237|237,12|12,281|281,12|12,310|310,12|12,312|312,12|12,334|334,12|12,353|353,12|12,405|405,12|12,419|419,12|12,426|426,12|12,430|430,12|12,435|435,12|12,457|457,12|12,465|465,12|12,491|491,12|12,517|517,12|12,530|530,12|12,533|533,12|12,540|540,12|12,549|549,12|12,573|573,12|12,574|574,12|12,583|583,12|12,587|587,12|13,31|31,13|13,123|123,13|13,137|137,13|13,227|227,13|13,228|228,13|13,251|251,13|13,253|253,13|13,259|259,13|13,265|265,13|13,279|279,13|13,285|285,13|13,293|293,13|13,324|324,13|13,327|327,13|13,338|338,13|13,358|358,13|13,376|376,13|13,377|377,13|13,425|425,13|13,432|432,13|13,438|438,13|13,442|442,13|13,453|453,13|13,455|455,13|13,466|466,13|13,473|473,13|13,476|476,13|13,499|499,13|13,508|508,13|13,526|526,13|13,538|538,13|13,552|552,13|13,599|599,13|13,612|612,13|13,617|617,13|13,621|621,13|14,32|32,14|14,39|39,14|14,60|60,14|14,91|91,14|14,107|107,14|14,119|119,14|14,162|162,14|14,169|169,14|14,181|181,14|14,213|213,14|14,215|215,14|14,226|226,14|14,247|247,14|14,252|252,14|14,276|276,14|14,308|308,14|14,339|339,14|14,365|365,14|14,385|385,14|14,400|400,14|14,412|412,14|14,467|467,14|14,468|468,14|14,479|479,14|14,528|528,14|14,531|531,14|14,570|570,14|14,596|596,14|14,601|601,14|14,632|632,14|14,650|650,14|14,657|657,14|14,660|660,14|14,665|665,14|14,666|666,14|14,669|669,14|14,676|676,14|15,33|33,15|15,37|37,15|15,62|62,15|15,101|101,15|15,126|126,15|15,130|130,15|15,139|139,15|15,160|160,15|15,167|167,15|15,203|203,15|15,209|209,15|15,220|220,15|15,248|248,15|15,261|261,15|15,287|287,15|15,288|288,15|15,290|290,15|15,300|300,15|15,316|316,15|15,329|329,15|15,369|369,15|15,393|393,15|15,395|395,15|15,403|403,15|15,407|407,15|15,427|427,15|15,434|434,15|15,446|446,15|15,454|454,15|15,469|469,15|15,488|488,15|15,500|500,15|15,548|548,15|15,558|558,15|15,608|608,15|15,618|618,15|15,663|663,15|16,34|34,16|16,41|41,16|16,52|52,16|16,55|55,16|16,61|61,16|16,75|75,16|16,83|83,16|16,131|131,16|16,136|136,16|16,144|144,16|16,187|187,16|16,217|217,16|16,266|266,16|16,269|269,16|16,270|270,16|16,282|282,16|16,296|296,16|16,297|297,16|16,307|307,16|16,323|323,16|16,330|330,16|16,380|380,16|16,406|406,16|16,436|436,16|16,441|441,16|16,443|443,16|16,472|472,16|16,492|492,16|16,502|502,16|16,506|506,16|16,575|575,16|16,634|634,16|16,646|646,16|16,656|656,16|16,674|674,16|17,35|35,17|17,78|78,17|17,105|105,17|17,172|172,17|17,192|192,17|17,198|198,17|17,216|216,17|17,223|223,17|17,232|232,17|17,238|238,17|17,242|242,17|17,246|246,17|17,292|292,17|17,313|313,17|17,315|315,17|17,326|326,17|17,333|333,17|17,337|337,17|17,372|372,17|17,381|381,17|17,460|460,17|17,475|475,17|17,484|484,17|17,486|486,17|17,490|490,17|17,503|503,17|17,507|507,17|17,514|514,17|17,519|519,17|17,529|529,17|17,545|545,17|17,554|554,17|17,564|564,17|17,582|582,17|17,584|584,17|17,619|619,17|17,672|672,17|18,36|36,18|18,57|57,18|18,88|88,18|18,90|90,18|18,99|99,18|18,108|108,18|18,113|113,18|18,129|129,18|18,135|135,18|18,148|148,18|18,157|157,18|18,165|165,18|18,179|179,18|18,184|184,18|18,193|193,18|18,231|231,18|18,275|275,18|18,319|319,18|18,335|335,18|18,352|352,18|18,360|360,18|18,373|373,18|18,383|383,18|18,387|387,18|18,444|444,18|18,447|447,18|18,478|478,18|18,509|509,18|18,522|522,18|18,547|547,18|18,572|572,18|18,589|589,18|18,590|590,18|18,614|614,18|18,627|627,18|18,636|636,18|18,654|654,18|];
nodes = [|1,9,0,0,0,0,1,1|2,9,0,0,0,0,1,2|3,9,0,0,0,0,1,3|4,9,0,0,0,0,1,4|5,9,0,0,0,0,1,5|6,9,0,0,0,0,1,6|7,9,0,0,0,0,1,7|8,9,0,0,0,0,1,8|9,9,0,0,0,0,1,9|10,9,0,0,0,0,1,10|11,9,0,0,0,0,1,11|12,9,0,0,0,0,1,12|13,9,0,0,0,0,1,13|14,9,0,0,0,0,1,14|15,9,0,0,0,0,1,15|16,9,0,0,0,0,1,16|17,9,0,0,0,0,1,17|18,9,0,0,0,0,1,18|19,10,0,0,0,0,1,1|20,10,0,0,0,0,1,2|21,10,0,0,0,0,1,3|22,10,0,0,0,0,1,4|23,10,0,0,0,0,1,5|24,10,0,0,0,0,1,6|25,10,0,0,0,0,1,7|26,10,0,0,0,0,1,8|27,10,0,0,0,0,1,9|28,10,0,0,0,0,1,10|29,10,0,0,0,0,1,11|30,10,0,0,0,0,1,12|31,10,0,0,0,0,1,13|32,10,0,0,0,0,1,14|33,10,0,0,0,0,1,15|34,10,0,0,0,0,1,16|35,10,0,0,0,0,1,17|36,10,0,0,0,0,1,18|37,4,0,0,0,0,1,15|38,4,0,0,0,0,1,6|39,4,0,0,0,0,1,14|40,3,0,0,0,0,1,2|41,5,0,0,0,0,1,16|42,1,0,0,0,0,1,6|43,1,0,0,0,0,1,9|44,4,0,0,0,0,1,7|45,4,0,0,0,0,1,11|46,1,0,0,0,0,1,10|47,4,0,0,0,0,1,10|48,2,0,0,0,0,1,9|49,4,0,0,0,0,1,8|50,4,0,0,0,0,1,2|51,4,0,0,0,0,1,10|52,2,0,0,0,0,1,16|53,4,0,0,0,0,1,1|54,2,0,0,0,0,1,9|55,5,0,0,0,0,1,16|56,5,0,0,0,0,1,3|57,5,0,0,0,0,1,18|58,3,0,0,0,0,1,1|59,3,0,0,0,0,1,2|60,3,0,0,0,0,1,14|61,3,0,0,0,0,1,16|62,1,0,0,0,0,1,15|63,2,0,0,0,0,1,11|64,3,0,0,0,0,1,8|65,5,0,0,0,0,1,1|66,5,0,0,0,0,1,7|67,3,0,0,0,0,1,4|68,1,0,0,0,0,1,8|69,1,0,0,0,0,1,1|70,1,0,0,0,0,1,8|71,5,0,0,0,0,1,6|72,5,0,0,0,0,1,2|73,5,0,0,0,0,1,6|74,4,0,0,0,0,1,10|75,2,0,0,0,0,1,16|76,5,0,0,0,0,1,1|77,1,0,0,0,0,1,5|78,4,0,0,0,0,1,17|79,1,0,0,0,0,1,7|80,1,0,0,0,0,1,9|81,3,0,0,0,0,1,12|82,3,0,0,0,0,1,1|83,2,0,0,0,0,1,16|84,4,0,0,0,0,1,12|85,5,0,0,0,0,1,1|86,2,0,0,0,0,1,5|87,4,0,0,0,0,1,1|88,3,0,0,0,0,1,18|89,1,0,0,0,0,1,10|90,3,0,0,0,0,1,18|91,1,0,0,0,0,1,14|92,2,0,0,0,0,1,3|93,5,0,0,0,0,1,12|94,5,0,0,0,0,1,6|95,5,0,0,0,0,1,3|96,3,0,0,0,0,1,9|97,3,0,0,0,0,1,8|98,1,0,0,0,0,1,4|99,1,0,0,0,0,1,18|100,4,0,0,0,0,1,1|101,2,0,0,0,0,1,15|102,2,0,0,0,0,1,7|103,2,0,0,0,0,1,2|104,1,0,0,0,0,1,7|105,2,0,0,0,0,1,17|106,1,0,0,0,0,1,12|107,4,0,0,0,0,1,14|108,4,0,0,0,0,1,18|109,4,0,0,0,0,1,12|110,3,0,0,0,0,1,4|111,3,0,0,0,0,1,9|112,5,0,0,0,0,1,2|113,1,0,0,0,0,1,18|114,1,0,0,0,0,1,7|115,3,0,0,0,0,1,8|116,2,0,0,0,0,1,10|117,2,0,0,0,0,1,1|118,2,0,0,0,0,1,4|119,5,0,0,0,0,1,14|120,2,0,0,0,0,1,2|121,1,0,0,0,0,1,11|122,3,0,0,0,0,1,6|123,5,0,0,0,0,1,13|124,4,0,0,0,0,1,7|125,1,0,0,0,0,1,6|126,1,0,0,0,0,1,15|127,5,0,0,0,0,1,6|128,3,0,0,0,0,1,1|129,4,0,0,0,0,1,18|130,1,0,0,0,0,1,15|131,2,0,0,0,0,1,16|132,1,0,0,0,0,1,4|133,4,0,0,0,0,1,7|134,5,0,0,0,0,1,12|135,5,0,0,0,0,1,18|136,3,0,0,0,0,1,16|137,4,0,0,0,0,1,13|138,1,0,0,0,0,1,12|139,4,0,0,0,0,1,15|140,5,0,0,0,0,1,4|141,2,0,0,0,0,1,11|142,3,0,0,0,0,1,5|143,1,0,0,0,0,1,8|144,1,0,0,0,0,1,16|145,1,0,0,0,0,1,8|146,4,0,0,0,0,1,5|147,1,0,0,0,0,1,9|148,4,0,0,0,0,1,18|149,4,0,0,0,0,1,2|150,4,0,0,0,0,1,3|151,2,0,0,0,0,1,5|152,4,0,0,0,0,1,11|153,3,0,0,0,0,1,3|154,4,0,0,0,0,1,6|155,1,0,0,0,0,1,1|156,3,0,0,0,0,1,5|157,5,0,0,0,0,1,18|158,2,0,0,0,0,1,8|159,3,0,0,0,0,1,12|160,4,0,0,0,0,1,15|161,5,0,0,0,0,1,4|162,4,0,0,0,0,1,14|163,1,0,0,0,0,1,12|164,4,0,0,0,0,1,10|165,2,0,0,0,0,1,18|166,4,0,0,0,0,1,11|167,4,0,0,0,0,1,15|168,3,0,0,0,0,1,8|169,5,0,0,0,0,1,14|170,5,0,0,0,0,1,5|171,5,0,0,0,0,1,3|172,4,0,0,0,0,1,17|173,2,0,0,0,0,1,6|174,1,0,0,0,0,1,12|175,2,0,0,0,0,1,7|176,2,0,0,0,0,1,4|177,3,0,0,0,0,1,4|178,3,0,0,0,0,1,4|179,3,0,0,0,0,1,18|180,5,0,0,0,0,1,10|181,1,0,0,0,0,1,14|182,3,0,0,0,0,1,11|183,5,0,0,0,0,1,2|184,5,0,0,0,0,1,18|185,2,0,0,0,0,1,9|186,2,0,0,0,0,1,3|187,1,0,0,0,0,1,16|188,4,0,0,0,0,1,2|189,3,0,0,0,0,1,6|190,3,0,0,0,0,1,11|191,4,0,0,0,0,1,9|192,1,0,0,0,0,1,17|193,5,0,0,0,0,1,18|194,5,0,0,0,0,1,8|195,2,0,0,0,0,1,11|196,5,0,0,0,0,1,2|197,3,0,0,0,0,1,9|198,1,0,0,0,0,1,17|199,5,0,0,0,0,1,7|200,3,0,0,0,0,1,4|201,5,0,0,0,0,1,2|202,2,0,0,0,0,1,5|203,5,0,0,0,0,1,15|204,1,0,0,0,0,1,3|205,3,0,0,0,0,1,5|206,5,0,0,0,0,1,6|207,3,0,0,0,0,1,5|208,4,0,0,0,0,1,3|209,5,0,0,0,0,1,15|210,3,0,0,0,0,1,1|211,2,0,0,0,0,1,8|212,1,0,0,0,0,1,6|213,5,0,0,0,0,1,14|214,2,0,0,0,0,1,12|215,2,0,0,0,0,1,14|216,4,0,0,0,0,1,17|217,1,0,0,0,0,1,16|218,5,0,0,0,0,1,4|219,4,0,0,0,0,1,4|220,2,0,0,0,0,1,15|221,4,0,0,0,0,1,3|222,1,0,0,0,0,1,10|223,3,0,0,0,0,1,17|224,1,0,0,0,0,1,11|225,1,0,0,0,0,1,5|226,2,0,0,0,0,1,14|227,4,0,0,0,0,1,13|228,5,0,0,0,0,1,13|229,4,0,0,0,0,1,12|230,5,0,0,0,0,1,2|231,5,0,0,0,0,1,18|232,5,0,0,0,0,1,17|233,2,0,0,0,0,1,12|234,2,0,0,0,0,1,1|235,1,0,0,0,0,1,10|236,5,0,0,0,0,1,11|237,5,0,0,0,0,1,12|238,2,0,0,0,0,1,17|239,4,0,0,0,0,1,3|240,3,0,0,0,0,1,7|241,1,0,0,0,0,1,10|242,4,0,0,0,0,1,17|243,5,0,0,0,0,1,7|244,5,0,0,0,0,1,2|245,5,0,0,0,0,1,1|246,3,0,0,0,0,1,17|247,4,0,0,0,0,1,14|248,1,0,0,0,0,1,15|249,5,0,0,0,0,1,8|250,3,0,0,0,0,1,9|251,1,0,0,0,0,1,13|252,5,0,0,0,0,1,14|253,5,0,0,0,0,1,13|254,3,0,0,0,0,1,1|255,2,0,0,0,0,1,3|256,2,0,0,0,0,1,6|257,5,0,0,0,0,1,7|258,1,0,0,0,0,1,1|259,2,0,0,0,0,1,13|260,1,0,0,0,0,1,11|261,3,0,0,0,0,1,15|262,4,0,0,0,0,1,3|263,4,0,0,0,0,1,11|264,4,0,0,0,0,1,3|265,3,0,0,0,0,1,13|266,5,0,0,0,0,1,16|267,5,0,0,0,0,1,4|268,1,0,0,0,0,1,10|269,1,0,0,0,0,1,16|270,3,0,0,0,0,1,16|271,1,0,0,0,0,1,4|272,3,0,0,0,0,1,5|273,3,0,0,0,0,1,5|274,4,0,0,0,0,1,2|275,1,0,0,0,0,1,18|276,5,0,0,0,0,1,14|277,3,0,0,0,0,1,4|278,5,0,0,0,0,1,7|279,4,0,0,0,0,1,13|280,4,0,0,0,0,1,1|281,2,0,0,0,0,1,12|282,2,0,0,0,0,1,16|283,5,0,0,0,0,1,7|284,5,0,0,0,0,1,10|285,1,0,0,0,0,1,13|286,2,0,0,0,0,1,7|287,3,0,0,0,0,1,15|288,5,0,0,0,0,1,15|289,3,0,0,0,0,1,3|290,2,0,0,0,0,1,15|291,3,0,0,0,0,1,10|292,4,0,0,0,0,1,17|293,4,0,0,0,0,1,13|294,1,0,0,0,0,1,2|295,5,0,0,0,0,1,4|296,2,0,0,0,0,1,16|297,3,0,0,0,0,1,16|298,4,0,0,0,0,1,4|299,5,0,0,0,0,1,5|300,5,0,0,0,0,1,15|301,3,0,0,0,0,1,3|302,4,0,0,0,0,1,6|303,4,0,0,0,0,1,2|304,5,0,0,0,0,1,6|305,3,0,0,0,0,1,6|306,2,0,0,0,0,1,7|307,2,0,0,0,0,1,16|308,4,0,0,0,0,1,14|309,4,0,0,0,0,1,8|310,2,0,0,0,0,1,12|311,4,0,0,0,0,1,5|312,4,0,0,0,0,1,12|313,4,0,0,0,0,1,17|314,5,0,0,0,0,1,11|315,1,0,0,0,0,1,17|316,3,0,0,0,0,1,15|317,1,0,0,0,0,1,11|318,4,0,0,0,0,1,3|319,1,0,0,0,0,1,18|320,2,0,0,0,0,1,1|321,4,0,0,0,0,1,5|322,4,0,0,0,0,1,10|323,2,0,0,0,0,1,16|324,2,0,0,0,0,1,13|325,4,0,0,0,0,1,1|326,1,0,0,0,0,1,17|327,2,0,0,0,0,1,13|328,2,0,0,0,0,1,7|329,3,0,0,0,0,1,15|330,5,0,0,0,0,1,16|331,5,0,0,0,0,1,3|332,1,0,0,0,0,1,3|333,4,0,0,0,0,1,17|334,2,0,0,0,0,1,12|335,4,0,0,0,0,1,18|336,5,0,0,0,0,1,5|337,5,0,0,0,0,1,17|338,2,0,0,0,0,1,13|339,5,0,0,0,0,1,14|340,5,0,0,0,0,1,9|341,5,0,0,0,0,1,10|342,2,0,0,0,0,1,4|343,4,0,0,0,0,1,5|344,4,0,0,0,0,1,8|345,4,0,0,0,0,1,3|346,1,0,0,0,0,1,3|347,5,0,0,0,0,1,2|348,3,0,0,0,0,1,4|349,3,0,0,0,0,1,9|350,5,0,0,0,0,1,8|351,2,0,0,0,0,1,3|352,5,0,0,0,0,1,18|353,2,0,0,0,0,1,12|354,2,0,0,0,0,1,11|355,5,0,0,0,0,1,8|356,1,0,0,0,0,1,9|357,4,0,0,0,0,1,7|358,1,0,0,0,0,1,13|359,5,0,0,0,0,1,9|360,1,0,0,0,0,1,18|361,3,0,0,0,0,1,3|362,3,0,0,0,0,1,8|363,3,0,0,0,0,1,7|364,3,0,0,0,0,1,5|365,4,0,0,0,0,1,14|366,5,0,0,0,0,1,9|367,4,0,0,0,0,1,11|368,2,0,0,0,0,1,1|369,3,0,0,0,0,1,15|370,1,0,0,0,0,1,3|371,4,0,0,0,0,1,6|372,5,0,0,0,0,1,17|373,4,0,0,0,0,1,18|374,3,0,0,0,0,1,10|375,5,0,0,0,0,1,7|376,5,0,0,0,0,1,13|377,2,0,0,0,0,1,13|378,3,0,0,0,0,1,5|379,3,0,0,0,0,1,8|380,1,0,0,0,0,1,16|381,2,0,0,0,0,1,17|382,4,0,0,0,0,1,2|383,5,0,0,0,0,1,18|384,4,0,0,0,0,1,9|385,5,0,0,0,0,1,14|386,2,0,0,0,0,1,9|387,1,0,0,0,0,1,18|388,3,0,0,0,0,1,3|389,5,0,0,0,0,1,10|390,4,0,0,0,0,1,4|391,3,0,0,0,0,1,4|392,5,0,0,0,0,1,1|393,5,0,0,0,0,1,15|394,4,0,0,0,0,1,5|395,3,0,0,0,0,1,15|396,4,0,0,0,0,1,8|397,4,0,0,0,0,1,8|398,2,0,0,0,0,1,5|399,3,0,0,0,0,1,7|400,4,0,0,0,0,1,14|401,1,0,0,0,0,1,11|402,5,0,0,0,0,1,5|403,1,0,0,0,0,1,15|404,4,0,0,0,0,1,10|405,3,0,0,0,0,1,12|406,5,0,0,0,0,1,16|407,4,0,0,0,0,1,15|408,1,0,0,0,0,1,9|409,4,0,0,0,0,1,9|410,1,0,0,0,0,1,6|411,2,0,0,0,0,1,1|412,5,0,0,0,0,1,14|413,2,0,0,0,0,1,6|414,2,0,0,0,0,1,11|415,2,0,0,0,0,1,8|416,1,0,0,0,0,1,6|417,2,0,0,0,0,1,11|418,5,0,0,0,0,1,10|419,2,0,0,0,0,1,12|420,5,0,0,0,0,1,4|421,4,0,0,0,0,1,7|422,3,0,0,0,0,1,3|423,5,0,0,0,0,1,6|424,4,0,0,0,0,1,4|425,4,0,0,0,0,1,13|426,3,0,0,0,0,1,12|427,1,0,0,0,0,1,15|428,3,0,0,0,0,1,9|429,4,0,0,0,0,1,1|430,4,0,0,0,0,1,12|431,4,0,0,0,0,1,2|432,5,0,0,0,0,1,13|433,2,0,0,0,0,1,11|434,5,0,0,0,0,1,15|435,1,0,0,0,0,1,12|436,2,0,0,0,0,1,16|437,5,0,0,0,0,1,11|438,5,0,0,0,0,1,13|439,2,0,0,0,0,1,1|440,2,0,0,0,0,1,11|441,3,0,0,0,0,1,16|442,3,0,0,0,0,1,13|443,5,0,0,0,0,1,16|444,4,0,0,0,0,1,18|445,2,0,0,0,0,1,10|446,3,0,0,0,0,1,15|447,3,0,0,0,0,1,18|448,5,0,0,0,0,1,10|449,5,0,0,0,0,1,2|450,5,0,0,0,0,1,7|451,1,0,0,0,0,1,8|452,5,0,0,0,0,1,4|453,3,0,0,0,0,1,13|454,4,0,0,0,0,1,15|455,3,0,0,0,0,1,13|456,1,0,0,0,0,1,7|457,2,0,0,0,0,1,12|458,5,0,0,0,0,1,5|459,1,0,0,0,0,1,1|460,1,0,0,0,0,1,17|461,2,0,0,0,0,1,6|462,2,0,0,0,0,1,1|463,5,0,0,0,0,1,6|464,2,0,0,0,0,1,5|465,1,0,0,0,0,1,12|466,1,0,0,0,0,1,13|467,1,0,0,0,0,1,14|468,4,0,0,0,0,1,14|469,2,0,0,0,0,1,15|470,4,0,0,0,0,1,3|471,4,0,0,0,0,1,11|472,5,0,0,0,0,1,16|473,4,0,0,0,0,1,13|474,4,0,0,0,0,1,7|475,5,0,0,0,0,1,17|476,4,0,0,0,0,1,13|477,5,0,0,0,0,1,2|478,3,0,0,0,0,1,18|479,3,0,0,0,0,1,14|480,2,0,0,0,0,1,6|481,2,0,0,0,0,1,10|482,1,0,0,0,0,1,2|483,4,0,0,0,0,1,6|484,3,0,0,0,0,1,17|485,3,0,0,0,0,1,8|486,3,0,0,0,0,1,17|487,5,0,0,0,0,1,5|488,2,0,0,0,0,1,15|489,4,0,0,0,0,1,8|490,4,0,0,0,0,1,17|491,3,0,0,0,0,1,12|492,1,0,0,0,0,1,16|493,5,0,0,0,0,1,6|494,5,0,0,0,0,1,8|495,5,0,0,0,0,1,11|496,1,0,0,0,0,1,5|497,3,0,0,0,0,1,9|498,2,0,0,0,0,1,4|499,3,0,0,0,0,1,13|500,1,0,0,0,0,1,15|501,5,0,0,0,0,1,8|502,2,0,0,0,0,1,16|503,5,0,0,0,0,1,17|504,4,0,0,0,0,1,6|505,2,0,0,0,0,1,9|506,2,0,0,0,0,1,16|507,2,0,0,0,0,1,17|508,5,0,0,0,0,1,13|509,5,0,0,0,0,1,18|510,2,0,0,0,0,1,11|511,5,0,0,0,0,1,9|512,5,0,0,0,0,1,6|513,5,0,0,0,0,1,8|514,1,0,0,0,0,1,17|515,1,0,0,0,0,1,11|516,4,0,0,0,0,1,5|517,1,0,0,0,0,1,12|518,4,0,0,0,0,1,4|519,2,0,0,0,0,1,17|520,4,0,0,0,0,1,7|521,1,0,0,0,0,1,8|522,2,0,0,0,0,1,18|523,2,0,0,0,0,1,11|524,1,0,0,0,0,1,9|525,4,0,0,0,0,1,1|526,1,0,0,0,0,1,13|527,3,0,0,0,0,1,10|528,5,0,0,0,0,1,14|529,2,0,0,0,0,1,17|530,1,0,0,0,0,1,12|531,5,0,0,0,0,1,14|532,1,0,0,0,0,1,1|533,1,0,0,0,0,1,12|534,2,0,0,0,0,1,3|535,4,0,0,0,0,1,10|536,2,0,0,0,0,1,6|537,2,0,0,0,0,1,3|538,3,0,0,0,0,1,13|539,4,0,0,0,0,1,10|540,5,0,0,0,0,1,12|541,1,0,0,0,0,1,7|542,3,0,0,0,0,1,10|543,3,0,0,0,0,1,2|544,3,0,0,0,0,1,10|545,4,0,0,0,0,1,17|546,2,0,0,0,0,1,9|547,4,0,0,0,0,1,18|548,3,0,0,0,0,1,15|549,3,0,0,0,0,1,12|550,3,0,0,0,0,1,2|551,2,0,0,0,0,1,10|552,3,0,0,0,0,1,13|553,2,0,0,0,0,1,1|554,4,0,0,0,0,1,17|555,3,0,0,0,0,1,9|556,3,0,0,0,0,1,2|557,4,0,0,0,0,1,5|558,2,0,0,0,0,1,15|559,5,0,0,0,0,1,2|560,3,0,0,0,0,1,4|561,5,0,0,0,0,1,2|562,5,0,0,0,0,1,3|563,1,0,0,0,0,1,7|564,4,0,0,0,0,1,17|565,2,0,0,0,0,1,6|566,5,0,0,0,0,1,7|567,1,0,0,0,0,1,1|568,5,0,0,0,0,1,7|569,3,0,0,0,0,1,9|570,3,0,0,0,0,1,14|571,3,0,0,0,0,1,3|572,3,0,0,0,0,1,18|573,3,0,0,0,0,1,12|574,1,0,0,0,0,1,12|575,1,0,0,0,0,1,16|576,2,0,0,0,0,1,9|577,4,0,0,0,0,1,11|578,1,0,0,0,0,1,3|579,1,0,0,0,0,1,2|580,3,0,0,0,0,1,6|581,5,0,0,0,0,1,11|582,4,0,0,0,0,1,17|583,2,0,0,0,0,1,12|584,1,0,0,0,0,1,17|585,2,0,0,0,0,1,2|586,3,0,0,0,0,1,7|587,3,0,0,0,0,1,12|588,2,0,0,0,0,1,4|589,1,0,0,0,0,1,18|590,5,0,0,0,0,1,18|591,5,0,0,0,0,1,2|592,4,0,0,0,0,1,8|593,3,0,0,0,0,1,11|594,5,0,0,0,0,1,11|595,4,0,0,0,0,1,8|596,5,0,0,0,0,1,14|597,4,0,0,0,0,1,8|598,4,0,0,0,0,1,2|599,3,0,0,0,0,1,13|600,3,0,0,0,0,1,4|601,5,0,0,0,0,1,14|602,4,0,0,0,0,1,6|603,3,0,0,0,0,1,2|604,4,0,0,0,0,1,1|605,3,0,0,0,0,1,7|606,4,0,0,0,0,1,7|607,1,0,0,0,0,1,2|608,1,0,0,0,0,1,15|609,4,0,0,0,0,1,4|610,2,0,0,0,0,1,9|611,5,0,0,0,0,1,2|612,3,0,0,0,0,1,13|613,4,0,0,0,0,1,5|614,5,0,0,0,0,1,18|615,3,0,0,0,0,1,9|616,4,0,0,0,0,1,4|617,3,0,0,0,0,1,13|618,3,0,0,0,0,1,15|619,3,0,0,0,0,1,17|620,3,0,0,0,0,1,8|621,5,0,0,0,0,1,13|622,4,0,0,0,0,1,5|623,2,0,0,0,0,1,3|624,4,0,0,0,0,1,1|625,2,0,0,0,0,1,9|626,4,0,0,0,0,1,10|627,4,0,0,0,0,1,18|628,4,0,0,0,0,1,1|629,2,0,0,0,0,1,8|630,3,0,0,0,0,1,2|631,5,0,0,0,0,1,3|632,4,0,0,0,0,1,14|633,1,0,0,0,0,1,10|634,5,0,0,0,0,1,16|635,2,0,0,0,0,1,7|636,3,0,0,0,0,1,18|637,2,0,0,0,0,1,4|638,4,0,0,0,0,1,11|639,5,0,0,0,0,1,8|640,3,0,0,0,0,1,9|641,5,0,0,0,0,1,5|642,1,0,0,0,0,1,6|643,3,0,0,0,0,1,9|644,5,0,0,0,0,1,1|645,2,0,0,0,0,1,3|646,1,0,0,0,0,1,16|647,1,0,0,0,0,1,4|648,2,0,0,0,0,1,4|649,1,0,0,0,0,1,5|650,5,0,0,0,0,1,14|651,2,0,0,0,0,1,6|652,4,0,0,0,0,1,5|653,3,0,0,0,0,1,3|654,4,0,0,0,0,1,18|655,2,0,0,0,0,1,11|656,5,0,0,0,0,1,16|657,4,0,0,0,0,1,14|658,2,0,0,0,0,1,10|659,4,0,0,0,0,1,10|660,3,0,0,0,0,1,14|661,4,0,0,0,0,1,7|662,3,0,0,0,0,1,11|663,3,0,0,0,0,1,15|664,3,0,0,0,0,1,1|665,1,0,0,0,0,1,14|666,5,0,0,0,0,1,14|667,3,0,0,0,0,1,8|668,1,0,0,0,0,1,9|669,2,0,0,0,0,1,14|670,5,0,0,0,0,1,5|671,5,0,0,0,0,1,10|672,3,0,0,0,0,1,17|673,1,0,0,0,0,1,4|674,5,0,0,0,0,1,16|675,3,0,0,0,0,1,5|676,3,0,0,0,0,1,14|677,4,0,0,0,0,1,11|678,1,0,0,0,0,1,9|679,5,0,0,0,0,1,10|680,3,0,0,0,0,1,6|681,5,0,0,0,0,1,10|];
